!
!   File created by MacMolPlt 7.7.3, modified by MI
!
 $CONTRL SCFTYP=RHF RUNTYP=ENERGY MAXIT=30 
          NPRINT=-5 MULT=1 ISPHER=1 $END
 $SYSTEM TIMLIM=525600 MEMORY=5000000 $END
 $BASIS GBASIS=CCD $END
 $SCF DIRSCF=.TRUE. $END
 $DATA 
Vitamin A
C1
O     8.0    -8.17618    -1.09252     1.37024
C     6.0     4.56983     0.72682     0.54209
C     6.0     5.92666    -0.02265     0.44020
C     6.0     5.78027    -1.51253     0.69204
C     6.0     3.44188    -0.03618    -0.19145
C     6.0     4.84234    -2.12544    -0.33690
C     6.0     3.58783    -1.31941    -0.60752
C     6.0     4.81215     2.13123    -0.06330
C     6.0     4.19762     0.89224     2.03337
C     6.0     2.20549     0.70346    -0.38423
C     6.0     2.56249    -2.12102    -1.37585
C     6.0     0.99016     0.15595    -0.22529
C     6.0    -0.30311     0.82671    -0.39874
C     6.0    -0.27610     2.28143    -0.79684
C     6.0    -1.42813     0.10783    -0.19378
C     6.0    -2.80308     0.55778    -0.30729
C     6.0    -3.85056    -0.25327    -0.07751
C     6.0    -5.27059     0.10185    -0.16489
C     6.0    -5.61194     1.51659    -0.55382
C     6.0    -6.18944    -0.85004     0.10247
C     6.0    -7.68205    -0.73901     0.08377
H     1.0     6.65096     0.39679     1.15001
H     1.0     6.35992     0.12043    -0.55972
H     1.0     5.40145    -1.69658     1.70387
H     1.0     6.75963    -2.00117     0.63231
H     1.0     4.56887    -3.13036     0.00824
H     1.0     5.38071    -2.24988    -1.28548
H     1.0     4.94304     2.07986    -1.15046
H     1.0     3.99055     2.82373     0.14941
H     1.0     5.71661     2.58696     0.35785
H     1.0     5.01133     1.36656     2.59392
H     1.0     3.30956     1.52303     2.15737
H     1.0     3.98070    -0.07027     2.50916
H     1.0     2.29917     1.73260    -0.71071
H     1.0     3.06635    -2.77398    -2.09903
H     1.0     1.88620    -1.50712    -1.97587
H     1.0     1.98721    -2.76173    -0.70037
H     1.0     0.91386    -0.86678     0.13858
H     1.0    -1.26629     2.72957    -0.90006
H     1.0     0.25677     2.87505    -0.04556
H     1.0     0.22488     2.40514    -1.76354
H     1.0    -1.32681    -0.94048     0.09089
H     1.0    -2.97286     1.58953    -0.58919
H     1.0    -3.64479    -1.28604     0.20451
H     1.0    -5.20074     2.22489     0.17406
H     1.0    -6.68508     1.71006    -0.60547
H     1.0    -5.20444     1.75238    -1.54326
H     1.0    -5.83779    -1.84795     0.36791
H     1.0    -8.09177    -1.44946    -0.64084
H     1.0    -8.06427     0.25075    -0.16792
H     1.0    -7.85546    -0.42572     2.00166
 $END
