echo

start molecule

title "Li-monoene"
charge 0

geometry units angstroms print xyz autosym
   C        0.47305        1.45013        0.00010
   C        1.50014        0.37296       -0.40853
   C       -0.93468        0.96622       -0.16324
   C        1.16991       -1.04506        0.10367
   C       -1.19840       -0.37859       -0.36609
   C       -0.28175       -1.37276       -0.06360
  Li       -0.61397       -0.12562        1.82437
   H        0.69633        1.84855        1.00928
   H        0.62117        2.33306       -0.66395
   H        1.51864        0.33212       -1.51818
   H        2.51386        0.66906       -0.09386
   H       -1.66722        1.71955       -0.39122
   H        1.76631       -1.77208       -0.49489
   H        1.54719       -1.19224        1.13472
   H       -2.19438       -0.67186       -0.72190
   H       -0.51450       -2.41139       -0.21580
end

basis
  * library 6-31G*
end

dft
  xc b3lyp
  mult 1
  mulliken
end


task dft optimize

